
Gurobi 12.0.2 (win64) logging started Wed Jun  4 16:58:00 2025

Set parameter LogFile to value "C:\Ioana\_uni\honours\slp\algorithm\Main_files\results\others\fatty_acids\Task_017_Sample001_irr_gurobi.log"
Gurobi Optimizer version 12.0.2 build v12.0.2rc0 (win64 - Windows 11.0 (26100.2))

CPU model: Intel(R) Core(TM) Ultra 5 125H, instruction set [SSE2|AVX|AVX2]
Thread count: 14 physical cores, 18 logical processors, using up to 18 threads

Non-default parameters:
TimeLimit  2200

Optimize a model with 47226 rows, 34498 columns and 146685 nonzeros
Model fingerprint: 0x53ff8449
Variable types: 17253 continuous, 17245 integer (17245 binary)
Coefficient statistics:
  Matrix range     [1e-04, 8e+04]
  Objective range  [2e-04, 9e-01]
  Bounds range     [1e+00, 1e+03]
  RHS range        [1e+00, 1e+00]
Presolve removed 30774 rows and 21545 columns
Presolve time: 0.49s
Presolved: 16452 rows, 12953 columns, 54678 nonzeros
Variable types: 6409 continuous, 6544 integer (6544 binary)
Found heuristic solution: objective 16.6106404

Root relaxation: objective 9.005860e-01, 591 iterations, 0.04 seconds (0.03 work units)

    Nodes    |    Current Node    |     Objective Bounds      |     Work
 Expl Unexpl |  Obj  Depth IntInf | Incumbent    BestBd   Gap | It/Node Time

     0     0    0.90059    0    1   16.61064    0.90059  94.6%     -    0s
H    0     0                       0.9291289    0.90059  3.07%     -    0s
     0     0    0.90059    0    1    0.92913    0.90059  3.07%     -    0s

Explored 1 nodes (591 simplex iterations) in 0.69 seconds (0.48 work units)
Thread count was 18 (of 18 available processors)

Solution count 2: 0.929129 16.6106 

Optimal solution found (tolerance 1.00e-04)
Best objective 9.291288970089e-01, best bound 9.291288970089e-01, gap 0.0000%

Gurobi 12.0.2 (win64) logging started Thu Jun  5 15:34:16 2025

Set parameter LogFile to value "C:\Ioana\_uni\honours\slp\algorithm\Main_files\results\others\fatty_acids\Task_017_Sample001_irr_gurobi.log"
Gurobi Optimizer version 12.0.2 build v12.0.2rc0 (win64 - Windows 11.0 (26100.2))

CPU model: Intel(R) Core(TM) Ultra 5 125H, instruction set [SSE2|AVX|AVX2]
Thread count: 14 physical cores, 18 logical processors, using up to 18 threads

Non-default parameters:
TimeLimit  2200

Optimize a model with 47226 rows, 34498 columns and 146685 nonzeros
Model fingerprint: 0x53ff8449
Variable types: 17253 continuous, 17245 integer (17245 binary)
Coefficient statistics:
  Matrix range     [1e-04, 8e+04]
  Objective range  [2e-04, 9e-01]
  Bounds range     [1e+00, 1e+03]
  RHS range        [1e+00, 1e+00]
Presolve removed 30774 rows and 21545 columns
Presolve time: 0.53s
Presolved: 16452 rows, 12953 columns, 54678 nonzeros
Variable types: 6409 continuous, 6544 integer (6544 binary)
Found heuristic solution: objective 16.6106404

Root relaxation: objective 9.005860e-01, 591 iterations, 0.03 seconds (0.03 work units)

    Nodes    |    Current Node    |     Objective Bounds      |     Work
 Expl Unexpl |  Obj  Depth IntInf | Incumbent    BestBd   Gap | It/Node Time

     0     0    0.90059    0    1   16.61064    0.90059  94.6%     -    0s
H    0     0                       0.9291289    0.90059  3.07%     -    0s
     0     0    0.90059    0    1    0.92913    0.90059  3.07%     -    0s

Explored 1 nodes (591 simplex iterations) in 0.73 seconds (0.48 work units)
Thread count was 18 (of 18 available processors)

Solution count 2: 0.929129 16.6106 

Optimal solution found (tolerance 1.00e-04)
Best objective 9.291288970089e-01, best bound 9.291288970089e-01, gap 0.0000%
